30
589
585
false
0.25
37 13 39 28 16 41 50 30 16 25 44 25 21 4 50 29 3 39 46 12 34 17 12 26 33 17 33 24 15 19
82 8 92 100 84 83 7 39 34 11 74 4 96 5 13 12 41 84 85 84 66 49 46 91 72 59 21 62 58 70
0 54 0 0 0 0 0 0 0 0 0 0 0 0 0 0 0 0 78 0 0 5 0 0 0 0 0 0 0 0
0 67 0 0 0 0 0 0 53 58 0 0 0 64 0 0 0 57 6 0 0 0 0 0 84 0 0 0 0
0 1 0 0 0 15 0 18 0 0 0 0 3 0 0 73 7 0 0 11 0 55 0 0 0 0 4 0
0 32 0 0 0 0 0 0 0 0 0 62 0 65 0 0 0 40 0 37 0 0 0 0 0 0 0
0 28 0 0 0 0 0 0 0 0 0 0 0 0 0 0 0 0 0 0 0 0 0 0 0 0
0 0 0 5 0 0 0 0 0 28 0 0 0 0 0 0 81 65 0 0 0 0 27 0 99
0 0 0 0 0 0 0 0 0 0 0 0 0 0 0 0 0 52 0 41 0 0 0 92
0 0 0 0 0 0 36 0 0 0 0 0 69 36 0 80 0 0 0 0 0 0 0
0 0 0 75 0 0 96 0 0 0 0 0 97 13 0 0 0 0 15 0 35 0
0 0 0 0 89 0 0 0 35 96 0 0 0 68 0 0 0 45 86 27 0
0 0 72 0 0 0 0 0 0 85 93 0 21 67 0 0 0 0 0 11
0 0 0 0 0 0 0 71 0 0 0 0 75 0 0 75 37 0 0
0 0 0 0 0 0 7 0 0 0 2 0 0 0 0 33 0 73
0 0 0 0 0 0 90 0 0 0 0 0 0 0 0 0 0
0 0 0 0 81 0 0 0 75 0 0 13 0 47 0 93
0 0 59 0 0 0 88 0 0 0 0 0 0 34 30
0 0 0 0 0 93 0 0 0 0 0 0 0 0
0 0 0 66 0 0 55 0 13 0 0 84 0
0 0 0 0 21 0 0 0 0 0 0 0
0 0 71 0 0 0 0 0 0 0 0
0 69 0 0 0 0 0 0 0 0
0 52 0 0 41 0 0 0 0
0 32 0 0 0 0 0 0
0 0 0 0 0 0 0
0 0 0 0 0 0
0 0 0 0 0
0 0 52 0
0 0 0
0 0
0 0 0 1 41 0 0 0 0 0 0 0 41 92 0 0 0 0 0 9 0 0 5 0 0 57 75 0 38
0 0 0 42 33 0 0 0 0 0 0 37 51 0 0 0 0 44 0 0 0 8 0 0 56 0 0 0
0 0 0 0 0 0 85 79 0 0 35 53 0 0 0 0 0 2 77 0 31 0 0 36 0 0 0
0 0 0 0 0 0 0 0 0 0 1 0 0 0 0 0 0 0 0 0 0 0 0 4 0 0
0 0 0 0 0 0 72 0 0 0 0 0 0 63 0 48 69 0 0 98 0 7 0 0 51
0 0 0 0 0 0 0 0 0 0 0 0 58 0 0 0 0 0 65 0 89 35 0 0
0 0 0 0 0 0 37 0 0 14 24 0 0 0 0 100 6 0 0 0 53 0 0
0 68 35 0 0 0 0 0 0 0 0 0 0 8 75 0 0 0 0 0 0 0
0 0 0 0 0 0 9 60 55 2 5 89 0 0 0 16 0 0 83 89 0
0 0 96 0 48 0 0 7 0 0 90 20 0 0 0 0 0 55 0 0
0 0 0 0 0 43 0 0 0 0 80 0 14 57 0 7 0 0 0
0 0 0 0 61 13 0 0 0 0 0 0 3 0 0 0 28 0
0 0 0 0 88 0 0 46 8 90 0 0 89 0 92 0 0
0 0 0 0 0 0 0 0 0 0 0 0 37 74 0 0
0 0 0 0 0 0 0 0 0 0 0 96 0 0 0
0 0 0 48 41 0 0 0 0 12 99 32 0 78
0 0 0 0 0 0 0 0 61 0 0 0 0
0 0 0 0 0 0 62 0 0 0 56 0
0 0 0 0 20 9 0 0 0 0 0
0 0 0 0 0 0 76 0 0 0
0 28 45 0 79 0 0 0 0
0 0 54 0 49 0 0 0
0 0 42 58 0 0 0
0 0 0 27 0 0
0 0 0 0 55
0 10 0 0
0 13 17
0 0
0
0 0 0 0 0 0 0 0 0 0 0 0 0 0 0 20 0 17 0 19 19 0 0 0 0 87 39 0
0 0 41 0 0 0 0 0 0 0 0 0 0 0 0 0 18 0 0 0 0 32 0 0 24 0 0
0 0 0 32 38 58 0 0 0 0 0 90 0 0 0 29 0 0 3 29 82 45 38 0 0 98
0 0 0 0 0 60 0 0 49 0 0 0 0 0 0 0 0 0 0 9 0 11 0 18 53
0 0 0 84 0 0 0 0 3 19 0 0 28 83 0 0 50 0 0 0 0 0 83 0
0 0 0 0 0 49 0 0 37 0 0 0 0 64 0 0 0 0 0 0 0 0 0
0 0 96 19 0 0 0 0 50 24 53 5 0 98 0 80 40 81 0 93 14 0
0 0 0 0 0 0 0 39 17 0 22 36 0 83 0 0 0 0 0 0 76
0 0 42 0 0 0 0 0 0 0 0 0 0 0 0 37 0 0 0 0
0 0 0 0 0 92 0 31 0 0 0 0 12 0 0 0 0 10 0
0 0 0 0 0 0 65 0 0 0 26 0 0 22 0 0 0 49
0 0 0 0 0 0 0 0 0 0 0 0 0 46 8 0 0
0 0 0 36 34 0 90 0 59 40 0 0 0 0 0 0
0 0 0 0 0 65 0 0 13 0 0 0 0 93 45
0 0 0 0 0 0 34 0 35 0 0 66 0 68
0 0 0 1 0 0 93 75 0 24 0 0 0
0 0 0 0 95 100 0 94 23 0 0 0
0 0 58 0 18 0 0 0 0 0 0
0 0 84 0 17 50 0 0 0 0
0 65 0 92 47 0 0 0 0
0 0 0 0 0 72 0 42
0 19 0 55 0 0 0
0 0 0 28 0 0
0 36 0 93 0
0 27 0 0
0 0 29
0 52
0
0 0 43 0 0 0 0 0 0 60 0 80 0 0 75 0 0 0 55 82 0 0 0 100 77 0 0
0 0 0 0 0 0 0 12 0 0 20 0 0 0 0 0 0 0 0 0 0 0 0 57 0 18
0 0 47 22 51 63 0 49 50 0 0 0 0 14 62 0 0 0 0 45 0 0 98 0 0
0 93 0 0 0 32 0 0 0 64 0 100 0 0 51 0 3 0 0 0 0 0 0 0
0 69 0 0 42 0 0 0 37 0 0 0 0 0 0 0 0 0 0 81 0 24 37
0 0 62 0 0 0 97 0 0 3 0 0 95 0 0 0 0 0 0 0 0 24
0 0 97 0 0 0 0 0 0 0 63 0 0 0 89 0 0 0 0 0 0
0 0 29 0 0 28 0 0 0 0 58 54 36 0 0 81 0 0 0 0
0 0 0 25 0 0 0 0 0 0 0 0 0 66 0 0 98 70 0
0 0 0 0 0 78 9 0 0 0 58 0 50 83 43 0 0 0
0 0 34 0 0 0 0 0 30 0 0 0 0 0 0 0 0
0 10 0 0 0 0 0 0 0 0 0 61 78 0 0 7
0 56 0 0 0 0 0 0 0 0 0 0 0 0 0
0 72 98 0 0 0 0 0 0 0 0 0 0 0
0 0 0 0 0 0 47 0 0 0 0 7 29
0 0 0 0 0 0 0 0 0 0 0 45
0 0 0 0 0 0 0 0 9 0 0
0 0 0 0 35 0 0 0 0 0
0 56 0 0 0 0 0 0 0
0 36 0 0 0 0 0 0
0 0 0 0 0 0 0
0 92 0 0 0 0
0 0 0 0 0
0 0 0 0
0 0 0
0 0
0
0 0 0 0 0 0 0 0 0 0 0 0 0 0 0 54 0 0 0 0 0 0 0 0 0 0
0 0 88 0 73 0 0 72 0 0 0 59 51 0 96 0 0 0 0 0 0 96 42 0 0
0 0 9 0 0 35 17 26 0 0 0 0 0 5 0 0 20 0 0 0 88 0 0 0
0 0 0 51 0 0 0 0 79 0 0 0 0 31 45 0 0 0 0 0 2 0 0
0 0 0 0 0 0 0 0 88 55 75 0 0 0 0 0 0 0 0 0 0 64
0 0 95 0 0 0 95 99 0 0 0 0 0 4 0 25 0 0 0 0 43
0 76 55 10 0 78 0 0 51 0 0 0 0 0 0 0 23 0 0 78
0 96 24 0 69 0 0 0 51 0 0 0 0 0 0 0 0 77 0
0 0 36 33 0 0 68 0 0 0 97 22 0 12 0 0 0 0
0 0 22 84 0 0 17 0 0 86 0 0 0 0 0 0 0
0 59 1 0 0 0 64 0 53 34 0 0 0 0 0 0
0 0 0 0 55 8 34 72 0 0 0 0 68 0 30
0 0 0 0 0 0 0 0 0 0 0 0 0 68
0 0 0 0 0 36 72 0 0 62 55 0 0
0 0 0 87 0 0 0 0 21 75 0 0
0 63 0 86 90 0 0 0 0 0 40
0 0 0 0 6 0 0 0 44 0
0 55 18 0 0 0 99 0 0
0 88 0 0 0 46 46 74
0 0 0 24 20 0 0
0 37 0 0 0 0
0 79 0 0 0
0 0 0 87
0 0 0
0 0
0
0 0 0 19 0 0 77 0 0 89 0 0 0 0 0 0 0 19 69 0 0 2 59 0 18
0 30 0 0 0 36 65 0 0 0 0 0 0 0 25 94 58 0 59 0 73 54 0 0
0 0 0 30 0 0 0 0 0 0 0 0 0 0 0 0 0 1 0 0 38 24 0
0 61 0 0 0 0 0 41 0 0 0 0 0 0 0 53 0 0 0 0 0 0
0 0 0 0 70 0 0 0 89 0 0 93 0 0 0 45 46 0 0 0 0
0 0 0 0 0 0 0 0 55 0 93 15 0 78 0 100 0 0 0 0
0 0 53 44 86 0 50 86 0 0 0 0 92 0 0 0 0 98 0
0 0 64 0 1 0 0 0 0 0 0 0 0 0 100 0 17 0
0 19 0 0 0 0 0 0 0 0 0 0 0 0 0 0 0
0 16 0 0 0 0 0 85 89 89 0 0 0 0 0 0
0 0 18 0 0 0 0 36 0 0 0 0 0 0 0
0 0 0 0 66 0 0 80 16 89 31 0 0 0
0 3 0 0 33 0 19 0 0 0 75 0 0
0 0 4 53 0 0 0 0 0 0 0 47
0 11 0 0 87 56 0 0 0 0 0
0 0 0 83 0 0 11 0 0 0
0 0 0 0 0 81 0 92 0
0 68 71 0 0 0 0 97
0 92 0 0 55 0 0
0 0 0 0 0 0
0 0 0 0 0
0 0 0 0
0 0 0
0 0
0
0 0 0 0 0 11 0 0 0 56 0 0 0 68 0 65 0 0 0 0 0 74 0 0
0 0 65 0 0 0 0 8 0 0 55 55 0 0 0 90 0 0 0 0 0 0 40
0 0 0 0 0 0 0 0 95 3 0 0 0 15 0 85 0 0 23 0 0 0
0 0 0 0 0 0 0 0 0 0 0 0 0 0 0 0 0 19 0 0 85
0 73 0 0 0 0 36 0 0 0 66 0 0 0 0 0 0 0 0 0
0 0 0 29 0 0 87 0 12 0 31 0 5 86 0 0 0 45 0
0 0 0 91 0 0 10 0 0 50 0 0 47 0 0 0 34 0
0 0 0 0 0 0 0 84 25 81 32 0 0 0 0 76 46
0 97 5 77 54 93 0 90 93 0 50 0 0 19 0 60
0 0 0 0 0 0 0 0 0 0 0 0 0 68 1
0 0 0 0 69 90 0 0 0 38 0 0 0 0
0 0 40 0 0 34 0 0 0 0 0 0 4
0 0 0 0 0 32 52 0 28 56 72 0
0 0 0 0 0 0 1 49 0 0 0
0 48 0 0 0 0 0 0 0 0
0 75 0 0 0 0 0 0 0
0 0 26 0 0 0 0 0
0 0 77 0 0 0 0
0 0 0 0 0 0
0 65 0 0 0
0 0 0 31
0 0 60
0 0
0
0 59 0 0 0 0 0 0 0 0 0 0 0 53 0 92 0 0 0 0 0 0 0
0 57 0 0 70 0 0 0 28 0 0 0 0 52 0 20 0 0 0 0 79 0
0 0 0 0 85 0 58 0 0 24 22 0 77 0 0 0 0 0 0 0 80
0 0 0 0 71 0 0 0 0 0 0 0 0 0 0 95 0 0 0 0
0 0 0 0 0 0 0 0 0 0 97 0 0 0 6 0 79 0 0
0 37 0 0 0 0 0 0 0 99 13 0 0 0 0 0 0 0
0 0 22 0 0 0 0 0 0 81 0 0 0 0 0 0 0
0 0 0 0 0 59 0 0 0 61 0 0 0 72 0 12
0 0 33 0 100 0 0 0 0 16 0 0 0 0 0
0 32 0 0 0 0 68 0 0 0 0 0 4 0
0 95 0 0 76 0 0 0 0 0 60 0 26
0 58 0 0 0 0 0 45 37 76 0 0
0 81 40 0 0 0 0 0 0 0 0
0 56 0 0 29 60 0 0 0 0
0 95 0 0 0 49 0 0 0
0 0 0 0 0 18 0 0
0 0 29 0 0 87 0
0 9 0 0 0 83
0 0 0 99 0
0 97 39 0
0 0 0
0 0
0
0 0 83 0 0 76 0 7 39 0 0 98 0 0 0 0 0 0 0 0 0 0
0 0 0 0 38 88 0 0 0 0 64 5 3 0 0 0 0 68 0 46 37
0 0 0 25 0 0 0 0 0 0 0 0 32 0 21 0 0 0 0 0
0 19 0 42 0 0 0 10 33 0 0 0 0 0 92 0 0 70 0
0 0 0 0 0 0 0 0 75 58 11 28 0 0 0 0 20 0
0 0 0 0 0 0 0 0 0 0 0 76 0 0 0 0 0
0 0 37 0 0 0 0 0 0 0 0 37 0 0 0 0
0 41 0 0 0 0 0 0 0 0 0 0 0 0 0
0 0 0 0 0 0 45 0 0 0 4 0 0 0
0 0 0 0 79 0 0 89 0 0 0 0 0
0 0 0 0 0 0 30 0 56 0 64 0
0 0 92 0 0 0 0 0 0 0 0
0 0 0 50 0 1 98 0 87 0
0 84 94 0 0 78 0 0 0
0 0 0 0 13 55 0 0
0 0 0 18 0 0 0
0 0 0 74 0 0
0 52 12 0 95
0 0 0 0
0 0 33
0 0
0
0 72 0 58 0 0 0 0 82 47 1 0 0 0 0 0 0 0 39 0 0
0 0 53 0 34 0 0 0 43 61 0 0 11 0 54 0 0 0 89 0
0 87 0 0 0 0 0 0 0 0 0 0 0 51 0 0 0 0 0
0 54 0 0 35 91 0 0 92 0 0 0 80 0 0 0 0 68
0 0 0 0 0 0 0 52 0 24 0 0 0 0 53 0 0
0 0 0 25 0 0 0 0 0 0 0 0 0 0 0 0
0 0 67 0 0 54 0 0 10 0 0 0 0 0 0
0 0 0 0 42 0 0 0 0 42 0 0 0 61
0 0 0 0 0 0 0 0 0 0 0 0 97
0 0 0 0 0 0 32 0 0 14 0 0
0 0 0 0 0 0 0 79 0 0 0
0 0 0 50 0 87 0 0 0 0
0 3 0 72 0 0 46 0 5
0 0 0 0 0 0 97 0
0 0 0 91 0 0 91
0 1 0 0 0 0
0 0 68 0 38
0 0 0 0
0 0 0
0 64
0
0 58 0 81 0 93 47 0 0 0 0 4 0 0 0 45 0 0 0 0
0 0 0 84 0 0 0 57 62 80 0 0 0 0 0 0 0 6 0
0 69 0 0 37 0 0 91 0 80 0 0 0 0 0 0 0 0
0 0 20 0 49 43 24 0 0 28 0 0 0 0 0 0 0
0 73 54 73 0 0 0 0 0 0 0 0 0 0 0 4
0 0 9 0 0 45 0 0 93 0 0 0 25 0 0
0 0 32 0 0 0 0 0 0 0 32 0 0 0
0 0 7 0 0 0 0 0 0 0 0 0 0
0 0 95 0 94 0 94 24 31 0 0 0
0 0 0 0 0 11 0 0 0 0 0
0 0 0 48 0 0 0 0 0 0
0 14 0 0 23 0 9 82 0
0 0 0 87 17 0 0 0
0 6 0 54 0 96 0
0 0 0 41 47 0
0 0 0 88 0
0 11 0 0
0 1 93
0 0
0
0 17 0 0 0 7 0 11 0 0 0 0 0 4 0 68 0 1 0
0 0 0 33 0 0 0 0 0 0 0 0 0 0 0 0 80 0
0 0 0 0 0 0 0 0 0 0 0 0 0 0 0 0 0
0 29 62 37 0 0 0 0 0 0 0 0 0 92 0 0
0 0 0 0 0 0 0 0 0 0 0 0 0 0 74
0 0 89 0 0 0 1 0 0 0 0 0 0 28
0 0 0 0 0 77 0 0 0 39 0 0 0
0 0 0 0 0 0 84 0 86 0 0 1
0 0 0 0 0 0 0 0 0 0 51
0 0 81 0 83 0 0 0 0 0
0 0 0 0 0 8 0 0 0
0 81 0 0 0 0 0 0
0 0 0 0 10 0 39
0 0 0 0 0 0
0 0 0 0 0
0 0 0 84
0 0 0
0 91
0
0 0 31 0 0 0 0 94 40 0 0 0 0 0 0 0 0 0
0 0 0 0 69 0 0 0 81 86 0 29 76 0 0 0 0
0 0 0 0 78 0 0 0 33 0 0 0 0 0 0 0
0 0 0 0 0 0 0 12 0 93 0 0 83 0 0
0 61 0 57 0 38 53 0 0 0 0 0 71 0
0 0 0 13 0 0 0 0 0 0 0 0 0
0 0 26 78 0 58 0 98 0 0 0 0
0 0 0 0 0 40 36 0 0 0 0
0 0 0 42 0 0 0 0 0 54
0 0 16 0 100 86 0 0 0
0 0 0 0 14 0 0 0
0 0 0 0 0 26 0
0 0 0 0 30 0
0 0 0 63 31
0 0 0 0
0 73 0
0 0
0
0 0 0 0 0 0 0 0 0 0 0 0 0 0 0 0 0
0 0 0 0 0 0 0 0 21 0 0 0 0 0 63 0
0 61 0 0 0 87 0 49 0 0 74 0 0 0 67
0 0 0 0 94 45 0 0 0 0 0 0 40 0
0 0 0 1 0 73 0 0 0 0 68 94 12
0 0 17 0 17 0 0 0 0 0 0 0
0 0 0 0 0 0 0 14 54 0 0
0 0 0 0 0 0 16 0 0 0
0 11 0 0 0 74 0 0 0
0 0 65 0 19 61 0 0
0 0 0 0 92 0 0
0 0 10 0 0 0
0 0 3 42 0
0 3 37 0
0 0 0
0 0
0
0 0 50 0 50 0 0 0 0 0 0 0 0 0 0 0
0 0 0 60 0 78 0 0 0 0 0 0 0 0 0
0 0 21 0 0 25 93 0 0 0 0 0 0 0
0 0 77 45 0 0 0 0 15 0 0 0 0
0 0 85 0 0 0 0 65 9 0 0 25
0 42 49 0 0 0 0 0 0 88 39
0 0 31 0 0 0 0 0 0 0
0 0 0 0 0 78 60 0 0
0 0 0 0 0 0 0 0
0 0 0 0 0 0 0
0 100 0 0 8 0
0 0 64 0 0
0 0 0 0
0 38 0
0 0
0
0 0 0 0 0 0 0 0 0 0 28 0 0 20 0
0 89 0 0 0 0 0 49 0 90 16 0 0 0
0 0 92 25 0 90 0 0 0 35 0 13 0
0 0 0 0 0 21 0 0 0 15 0 0
0 0 0 74 0 43 0 0 0 0 0
0 0 0 0 0 0 0 0 0 0
0 0 0 0 0 83 0 0 0
0 0 0 0 0 0 0 0
0 10 0 51 0 0 0
0 0 0 0 98 0
0 0 0 80 0
0 11 0 0
0 0 50
0 0
0
0 32 0 0 14 0 0 0 0 0 0 0 0 0
0 0 0 0 0 21 0 0 0 0 0 0 0
0 0 26 0 0 0 0 0 0 0 0 0
0 0 0 0 22 78 0 0 0 0 0
0 0 0 86 0 0 53 0 0 0
0 0 0 7 0 0 0 0 83
0 0 0 50 0 36 0 0
0 0 0 0 0 0 96
0 0 9 0 0 0
0 0 0 86 0
0 42 0 0
0 0 0
0 0
0
0 0 0 0 0 0 0 0 0 0 0 0 0
0 0 0 0 0 56 0 72 0 0 0 0
0 0 0 0 13 0 4 0 100 33 0
0 0 44 0 42 97 0 0 0 0
0 60 64 87 0 0 71 51 0
0 0 0 0 42 0 0 0
0 0 0 0 0 0 41
0 0 0 0 0 0
0 0 0 0 0
0 0 0 37
0 2 0
0 0
0
0 0 0 0 93 22 0 0 0 0 60 80
0 0 0 0 0 0 0 0 72 0 0
0 0 0 0 15 0 3 0 0 99
0 0 20 0 0 70 0 0 0
0 0 0 0 0 0 0 0
0 0 0 0 0 0 0
0 0 0 0 81 0
0 0 0 0 48
0 0 0 0
0 0 0
0 0
0
0 0 0 24 72 22 0 51 0 95 26
0 32 0 0 0 0 89 0 83 0
0 0 0 0 47 0 0 80 0
0 0 0 0 0 85 0 0
0 20 0 0 0 77 0
0 0 91 0 0 0
0 0 0 61 0
0 0 0 68
0 0 0
0 0
0
0 0 0 0 0 61 0 0 0 0
0 77 82 0 0 0 0 0 78
0 0 2 0 0 3 0 0
0 0 0 0 0 16 0
0 0 0 0 0 0
0 0 0 3 0
0 0 0 68
0 65 79
0 31
0
0 89 0 14 39 51 40 0 0
0 0 0 0 78 0 0 0
0 0 0 60 0 0 0
0 0 0 0 50 0
0 0 0 0 0
0 5 0 0
0 0 0
0 0
0
0 83 0 0 0 0 0 70
0 0 0 0 94 0 0
0 0 0 68 0 78
0 0 0 5 71
0 0 0 0
0 0 0
0 0
0
0 0 0 73 0 0 0
0 18 0 0 77 0
0 0 0 0 0
0 67 0 0
0 0 0
0 77
0
0 0 0 0 0 88
0 28 0 0 0
0 0 0 0
0 0 0
0 0
0
0 0 17 0 0
0 40 100 0
0 72 0
0 0
0
0 0 0 0
0 99 0
0 0
0
0 0 0
0 0
0
0 0
0
0
5048 5801 4829 6225 4994 6233 5390 4739 5540 6433 5045 5750 5187 4328 5443 4486 5094 5067 5944 4899 5653 6751 6591 5285 4538 4861 5330 5342 5201 5103
136.43243243243242 446.2307692307692 123.82051282051282 222.32142857142858 312.125 152.02439024390245 107.8 157.96666666666667 346.25 257.32 114.6590909090909 230.0 247.0 1082.0 108.86 154.68965517241378 1698.0 129.92307692307693 129.2173913043478 408.25 166.26470588235293 397.11764705882354 549.25 203.26923076923077 137.5151515151515 285.94117647058823 161.5151515151515 222.58333333333334 346.73333333333335 268.57894736842104
